

******************************************************************************
This program contains Ipopt, a library for large-scale nonlinear optimization.
 Ipopt is released as open source code under the Eclipse Public License (EPL).
         For more information visit http://projects.coin-or.org/Ipopt
******************************************************************************

This is Ipopt version 3.12.8, running with linear solver mumps.
NOTE: Other linear solvers might be more efficient (see Ipopt documentation).

Number of nonzeros in equality constraint Jacobian...:        9
Number of nonzeros in inequality constraint Jacobian.:        0
Number of nonzeros in Lagrangian Hessian.............:        9

Total number of variables............................:        5
                     variables with only lower bounds:        0
                variables with lower and upper bounds:        0
                     variables with only upper bounds:        0
Total number of equality constraints.................:        3
Total number of inequality constraints...............:        0
        inequality constraints with only lower bounds:        0
   inequality constraints with lower and upper bounds:        0
        inequality constraints with only upper bounds:        0

iter    objective    inf_pr   inf_du lg(mu)  ||d||  lg(rg) alpha_du alpha_pr  ls
   0  7.5160000e+03 0.00e+00 6.41e+01  -1.0 0.00e+00    -  0.00e+00 0.00e+00   0
   1  2.7672726e+02 3.55e-15 2.79e+01  -1.0 3.83e+01    -  1.00e+00 1.00e+00f  1
   2  5.7731660e+01 8.88e-16 8.37e+00  -1.0 1.48e+00    -  1.00e+00 1.00e+00f  1
   3  1.2542999e+01 0.00e+00 2.55e+00  -1.0 1.02e+00    -  1.00e+00 1.00e+00f  1
   4  2.7797771e+00 8.88e-16 7.97e-01  -1.0 7.16e-01    -  1.00e+00 1.00e+00f  1
   5  5.2866734e-01 8.88e-16 2.50e-01  -1.7 5.28e-01    -  1.00e+00 1.00e+00f  1
   6  4.1466751e-02 0.00e+00 5.98e-02  -1.7 3.79e-01    -  1.00e+00 1.00e+00f  1
   7  7.8708402e-05 0.00e+00 2.56e-03  -2.5 1.53e-01    -  1.00e+00 1.00e+00f  1
   8  6.3837240e-13 0.00e+00 2.30e-07  -3.8 7.00e-03    -  1.00e+00 1.00e+00f  1
   9  0.0000000e+00 0.00e+00 9.83e-18  -8.6 6.31e-07    -  1.00e+00 1.00e+00f  1

Number of Iterations....: 9

                                   (scaled)                 (unscaled)
Objective...............:   0.0000000000000000e+00    0.0000000000000000e+00
Dual infeasibility......:   9.8282208943039281e-18    9.3171534078001241e-17
Constraint violation....:   0.0000000000000000e+00    0.0000000000000000e+00
Complementarity.........:   0.0000000000000000e+00    0.0000000000000000e+00
Overall NLP error.......:   9.8282208943039281e-18    9.3171534078001241e-17


Number of objective function evaluations             = 10
Number of objective gradient evaluations             = 10
Number of equality constraint evaluations            = 10
Number of inequality constraint evaluations          = 0
Number of equality constraint Jacobian evaluations   = 10
Number of inequality constraint Jacobian evaluations = 0
Number of Lagrangian Hessian evaluations             = 9
Total CPU secs in IPOPT (w/o function evaluations)   =      0.003
Total CPU secs in NLP function evaluations           =      0.000

EXIT: Optimal Solution Found.
 
Ipopt 3.12.8: Optimal Solution Found
